Maximize
  2.5 x_hardwood + 3 x_vinyl_planks
Subject To
  c1: x_hardwood >= 20000
  c2: x_vinyl_planks >= 10000
  c3: x_hardwood + x_vinyl_planks >= 60000
  c4: x_hardwood <= 50000
  c5: x_vinyl_planks <= 30000
Integer
  x_hardwood x_vinyl_planks
End